c "321879.clq"
p edge 100 1344
e 1 17
e 1 18
e 1 19
e 1 20
e 1 21
e 1 22
e 1 23
e 1 24
e 1 25
e 1 26
e 1 27
e 1 28
e 1 31
e 1 32
e 1 33
e 1 35
e 1 41
e 1 43
e 1 46
e 1 51
e 1 52
e 1 53
e 1 57
e 1 60
e 1 63
e 1 72
e 1 74
e 1 77
e 1 84
e 1 90
e 1 98
e 2 17
e 2 18
e 2 19
e 2 20
e 2 21
e 2 22
e 2 24
e 2 26
e 2 27
e 2 29
e 2 30
e 2 31
e 2 39
e 2 40
e 2 41
e 2 50
e 2 53
e 2 54
e 2 55
e 2 60
e 2 65
e 2 69
e 2 70
e 2 80
e 2 87
e 2 93
e 2 94
e 2 98
e 3 17
e 3 18
e 3 19
e 3 21
e 3 22
e 3 24
e 3 25
e 3 26
e 3 29
e 3 30
e 3 32
e 3 35
e 3 37
e 3 47
e 3 48
e 3 52
e 3 65
e 3 68
e 3 77
e 3 83
e 3 86
e 3 87
e 4 17
e 4 22
e 5 17
e 5 18
e 5 19
e 5 20
e 5 21
e 5 22
e 5 23
e 5 24
e 5 25
e 5 27
e 5 29
e 5 31
e 5 32
e 5 33
e 5 34
e 5 42
e 5 43
e 5 51
e 5 54
e 5 57
e 5 58
e 5 61
e 5 64
e 5 66
e 5 70
e 5 72
e 5 74
e 5 77
e 5 78
e 5 79
e 5 84
e 5 88
e 5 92
e 5 99
e 6 17
e 6 18
e 6 19
e 6 20
e 6 21
e 6 23
e 6 25
e 6 26
e 6 27
e 6 28
e 6 29
e 6 32
e 6 35
e 6 36
e 6 37
e 6 38
e 6 41
e 6 42
e 6 43
e 6 47
e 6 48
e 6 49
e 6 54
e 6 56
e 6 69
e 6 80
e 6 81
e 6 87
e 6 90
e 6 100
e 7 17
e 7 18
e 7 19
e 7 20
e 7 22
e 7 23
e 7 24
e 7 30
e 7 31
e 7 32
e 7 35
e 7 43
e 7 47
e 7 49
e 7 53
e 7 55
e 7 58
e 7 59
e 7 61
e 7 62
e 7 63
e 7 68
e 7 69
e 7 72
e 7 73
e 7 79
e 7 86
e 7 98
e 8 17
e 8 18
e 8 19
e 8 21
e 8 22
e 8 24
e 8 25
e 8 27
e 8 28
e 8 32
e 8 33
e 8 34
e 8 35
e 8 37
e 8 41
e 8 44
e 8 51
e 8 55
e 8 57
e 8 58
e 8 60
e 8 62
e 8 71
e 8 79
e 8 89
e 8 92
e 8 93
e 8 95
e 8 97
e 8 100
e 9 17
e 9 18
e 9 19
e 9 20
e 9 21
e 9 26
e 9 27
e 9 32
e 9 34
e 9 40
e 9 52
e 9 70
e 9 76
e 10 17
e 10 18
e 10 20
e 10 21
e 10 22
e 10 23
e 10 24
e 10 25
e 10 28
e 10 29
e 10 34
e 10 40
e 10 42
e 10 44
e 10 45
e 10 54
e 10 61
e 10 63
e 10 87
e 10 97
e 11 17
e 11 18
e 11 19
e 11 20
e 11 22
e 11 23
e 11 25
e 11 27
e 11 29
e 11 31
e 11 33
e 11 34
e 11 35
e 11 36
e 11 41
e 11 42
e 11 44
e 11 49
e 11 51
e 11 53
e 11 57
e 11 62
e 11 64
e 11 70
e 11 74
e 11 76
e 11 79
e 11 81
e 11 82
e 11 86
e 11 88
e 11 92
e 11 96
e 11 100
e 12 17
e 12 18
e 12 19
e 12 20
e 12 21
e 12 23
e 12 25
e 12 26
e 12 29
e 12 30
e 12 33
e 12 34
e 12 36
e 12 37
e 12 38
e 12 45
e 12 47
e 12 53
e 12 57
e 12 60
e 12 75
e 12 83
e 12 84
e 12 88
e 13 17
e 13 18
e 13 19
e 13 20
e 13 21
e 13 23
e 13 25
e 13 26
e 13 28
e 13 31
e 13 36
e 13 39
e 13 42
e 13 46
e 13 53
e 13 67
e 13 76
e 14 17
e 14 18
e 14 19
e 14 20
e 14 21
e 14 22
e 14 23
e 14 24
e 14 27
e 14 28
e 14 30
e 14 31
e 14 37
e 14 38
e 14 41
e 14 45
e 14 49
e 14 50
e 14 53
e 14 54
e 14 55
e 14 56
e 14 60
e 14 62
e 14 68
e 14 74
e 14 96
e 14 100
e 15 17
e 15 18
e 15 19
e 15 20
e 15 21
e 15 22
e 15 23
e 15 26
e 15 27
e 15 28
e 15 30
e 15 34
e 15 36
e 15 41
e 15 43
e 15 45
e 15 46
e 15 53
e 15 55
e 15 60
e 15 61
e 15 63
e 15 65
e 15 66
e 15 68
e 15 76
e 15 78
e 15 79
e 15 81
e 15 88
e 15 90
e 15 94
e 15 99
e 16 17
e 16 18
e 16 19
e 16 20
e 16 24
e 16 29
e 16 31
e 16 32
e 16 34
e 16 35
e 16 36
e 16 39
e 16 40
e 16 44
e 16 54
e 16 57
e 16 61
e 16 63
e 16 68
e 16 69
e 16 70
e 16 76
e 16 85
e 16 96
e 17 18
e 17 19
e 17 20
e 17 21
e 17 22
e 17 23
e 17 24
e 17 25
e 17 26
e 17 27
e 17 28
e 17 29
e 17 30
e 17 31
e 17 32
e 17 33
e 17 34
e 17 35
e 17 37
e 17 38
e 17 39
e 17 40
e 17 41
e 17 42
e 17 43
e 17 44
e 17 46
e 17 48
e 17 50
e 17 51
e 17 53
e 17 54
e 17 57
e 17 58
e 17 59
e 17 60
e 17 61
e 17 63
e 17 64
e 17 66
e 17 70
e 17 71
e 17 72
e 17 73
e 17 74
e 17 75
e 17 77
e 17 79
e 17 80
e 17 81
e 17 82
e 17 83
e 17 84
e 17 88
e 17 89
e 17 91
e 17 92
e 17 94
e 17 97
e 18 19
e 18 20
e 18 21
e 18 22
e 18 23
e 18 24
e 18 25
e 18 26
e 18 28
e 18 29
e 18 30
e 18 31
e 18 32
e 18 33
e 18 35
e 18 37
e 18 38
e 18 39
e 18 40
e 18 41
e 18 42
e 18 43
e 18 44
e 18 45
e 18 48
e 18 50
e 18 52
e 18 54
e 18 59
e 18 60
e 18 61
e 18 62
e 18 63
e 18 65
e 18 66
e 18 67
e 18 68
e 18 73
e 18 78
e 18 79
e 18 80
e 18 81
e 18 82
e 18 86
e 18 88
e 18 89
e 18 91
e 18 95
e 18 96
e 18 97
e 18 98
e 18 99
e 19 20
e 19 21
e 19 22
e 19 23
e 19 24
e 19 25
e 19 26
e 19 27
e 19 29
e 19 30
e 19 31
e 19 32
e 19 33
e 19 34
e 19 35
e 19 40
e 19 42
e 19 43
e 19 46
e 19 47
e 19 49
e 19 50
e 19 51
e 19 52
e 19 54
e 19 56
e 19 59
e 19 63
e 19 65
e 19 67
e 19 68
e 19 69
e 19 71
e 19 72
e 19 75
e 19 77
e 19 79
e 19 80
e 19 81
e 19 91
e 19 92
e 19 94
e 19 97
e 20 21
e 20 22
e 20 23
e 20 24
e 20 25
e 20 26
e 20 27
e 20 28
e 20 30
e 20 33
e 20 34
e 20 35
e 20 36
e 20 37
e 20 38
e 20 39
e 20 40
e 20 41
e 20 44
e 20 45
e 20 49
e 20 50
e 20 51
e 20 53
e 20 56
e 20 58
e 20 70
e 20 71
e 20 81
e 20 83
e 20 84
e 20 86
e 20 89
e 20 90
e 20 91
e 20 98
e 21 22
e 21 23
e 21 24
e 21 25
e 21 26
e 21 27
e 21 29
e 21 30
e 21 31
e 21 32
e 21 33
e 21 34
e 21 37
e 21 38
e 21 39
e 21 41
e 21 42
e 21 44
e 21 46
e 21 47
e 21 48
e 21 54
e 21 58
e 21 59
e 21 60
e 21 63
e 21 64
e 21 65
e 21 66
e 21 67
e 21 68
e 21 69
e 21 72
e 21 73
e 21 74
e 21 75
e 21 77
e 21 80
e 21 85
e 21 90
e 21 94
e 21 95
e 21 97
e 21 98
e 22 23
e 22 24
e 22 25
e 22 26
e 22 27
e 22 28
e 22 29
e 22 30
e 22 34
e 22 35
e 22 36
e 22 38
e 22 39
e 22 44
e 22 45
e 22 47
e 22 48
e 22 49
e 22 50
e 22 55
e 22 57
e 22 58
e 22 65
e 22 66
e 22 68
e 22 73
e 22 75
e 22 76
e 22 79
e 22 82
e 22 86
e 22 93
e 22 97
e 22 98
e 22 99
e 22 100
e 23 24
e 23 25
e 23 26
e 23 27
e 23 28
e 23 29
e 23 31
e 23 32
e 23 33
e 23 35
e 23 36
e 23 37
e 23 38
e 23 40
e 23 42
e 23 45
e 23 47
e 23 53
e 23 54
e 23 55
e 23 62
e 23 63
e 23 64
e 23 69
e 23 74
e 23 78
e 23 79
e 23 87
e 23 99
e 23 100
e 24 26
e 24 28
e 24 29
e 24 33
e 24 34
e 24 36
e 24 37
e 24 42
e 24 43
e 24 45
e 24 46
e 24 47
e 24 48
e 24 49
e 24 50
e 24 56
e 24 58
e 24 61
e 24 62
e 24 63
e 24 64
e 24 65
e 24 70
e 24 71
e 24 85
e 24 87
e 24 90
e 24 93
e 24 96
e 24 97
e 25 28
e 25 30
e 25 31
e 25 33
e 25 37
e 25 38
e 25 39
e 25 40
e 25 48
e 25 51
e 25 56
e 25 62
e 25 64
e 25 71
e 25 72
e 25 73
e 25 77
e 25 78
e 25 80
e 25 85
e 25 86
e 25 90
e 25 92
e 25 94
e 25 95
e 25 97
e 25 100
e 26 27
e 26 28
e 26 29
e 26 30
e 26 33
e 26 34
e 26 35
e 26 36
e 26 37
e 26 38
e 26 43
e 26 46
e 26 47
e 26 48
e 26 51
e 26 52
e 26 56
e 26 57
e 26 58
e 26 59
e 26 60
e 26 62
e 26 63
e 26 64
e 26 66
e 26 68
e 26 73
e 26 76
e 26 78
e 26 89
e 26 94
e 26 96
e 26 99
e 26 100
e 27 28
e 27 30
e 27 31
e 27 36
e 27 38
e 27 43
e 27 44
e 27 46
e 27 48
e 27 50
e 27 51
e 27 56
e 27 59
e 27 61
e 27 63
e 27 67
e 27 70
e 27 71
e 27 72
e 27 73
e 27 75
e 27 76
e 27 78
e 27 79
e 27 81
e 27 82
e 27 83
e 27 86
e 27 95
e 27 98
e 28 30
e 28 32
e 28 33
e 28 35
e 28 39
e 28 40
e 28 50
e 28 52
e 28 54
e 28 59
e 28 65
e 28 67
e 28 70
e 28 75
e 28 77
e 28 84
e 28 85
e 28 89
e 28 91
e 28 93
e 29 31
e 29 36
e 29 40
e 29 41
e 29 45
e 29 46
e 29 48
e 29 51
e 29 53
e 29 54
e 29 55
e 29 56
e 29 57
e 29 61
e 29 65
e 29 71
e 29 80
e 29 82
e 29 84
e 29 90
e 29 94
e 29 95
e 29 96
e 30 32
e 30 36
e 30 37
e 30 39
e 30 41
e 30 47
e 30 48
e 30 51
e 30 58
e 30 65
e 30 73
e 30 84
e 30 97
e 31 32
e 31 33
e 31 38
e 31 39
e 31 41
e 31 43
e 31 45
e 31 50
e 31 51
e 31 61
e 31 62
e 31 68
e 31 71
e 31 73
e 31 75
e 31 77
e 31 84
e 31 86
e 31 88
e 31 90
e 31 97
e 31 98
e 32 37
e 32 39
e 32 41
e 32 45
e 32 46
e 32 47
e 32 49
e 32 56
e 32 57
e 32 60
e 32 62
e 32 66
e 32 71
e 32 81
e 32 85
e 32 87
e 33 34
e 33 36
e 33 38
e 33 39
e 33 40
e 33 43
e 33 46
e 33 47
e 33 49
e 33 53
e 33 56
e 33 59
e 33 61
e 33 63
e 33 64
e 33 66
e 33 68
e 33 69
e 33 73
e 33 76
e 33 84
e 33 85
e 33 86
e 33 88
e 33 91
e 33 92
e 34 35
e 34 36
e 34 37
e 34 39
e 34 42
e 34 47
e 34 52
e 34 55
e 34 67
e 34 71
e 34 74
e 34 77
e 34 83
e 34 85
e 34 86
e 34 91
e 34 95
e 35 38
e 35 46
e 35 47
e 35 48
e 35 49
e 35 50
e 35 52
e 35 54
e 35 56
e 35 59
e 35 64
e 35 67
e 35 72
e 35 73
e 35 75
e 35 86
e 35 92
e 35 93
e 36 40
e 36 42
e 36 48
e 36 52
e 36 56
e 36 57
e 36 58
e 36 68
e 36 69
e 36 74
e 36 77
e 36 93
e 36 94
e 36 98
e 37 38
e 37 40
e 37 42
e 37 43
e 37 44
e 37 45
e 37 46
e 37 52
e 37 54
e 37 72
e 37 76
e 37 79
e 37 81
e 37 83
e 37 91
e 37 92
e 37 95
e 38 39
e 38 44
e 38 48
e 38 52
e 38 55
e 38 57
e 38 59
e 38 66
e 38 67
e 38 77
e 38 89
e 38 96
e 38 100
e 39 40
e 39 42
e 39 43
e 39 44
e 39 49
e 39 59
e 39 64
e 39 67
e 39 74
e 39 78
e 39 89
e 39 91
e 39 93
e 39 99
e 40 41
e 40 43
e 40 44
e 40 46
e 40 50
e 40 51
e 40 52
e 40 59
e 40 71
e 40 72
e 40 78
e 40 80
e 40 83
e 40 89
e 40 95
e 41 42
e 41 44
e 41 45
e 41 47
e 41 52
e 41 55
e 41 62
e 41 80
e 41 81
e 41 82
e 41 88
e 41 90
e 41 98
e 41 99
e 41 100
e 42 46
e 42 49
e 42 50
e 42 51
e 42 59
e 42 61
e 42 64
e 42 67
e 42 93
e 42 96
e 42 98
e 43 44
e 43 45
e 43 48
e 43 49
e 43 52
e 43 53
e 43 56
e 43 64
e 43 81
e 43 89
e 43 91
e 43 93
e 43 96
e 43 99
e 44 45
e 44 50
e 44 55
e 44 59
e 44 60
e 44 62
e 44 63
e 44 66
e 44 70
e 44 76
e 44 79
e 44 81
e 44 87
e 44 94
e 44 99
e 45 49
e 45 50
e 45 58
e 45 69
e 45 70
e 45 74
e 45 82
e 45 84
e 45 87
e 45 89
e 45 94
e 46 51
e 46 52
e 46 55
e 46 56
e 46 60
e 46 62
e 46 69
e 46 75
e 46 79
e 46 80
e 46 83
e 47 55
e 47 57
e 47 65
e 47 69
e 47 76
e 47 84
e 47 87
e 47 88
e 48 49
e 48 53
e 48 56
e 48 62
e 48 64
e 48 69
e 48 78
e 48 79
e 48 88
e 48 90
e 48 91
e 48 93
e 48 97
e 49 54
e 49 55
e 49 60
e 49 62
e 49 69
e 49 78
e 49 90
e 49 93
e 49 100
e 50 55
e 50 66
e 50 83
e 50 86
e 50 87
e 50 90
e 50 95
e 51 57
e 51 61
e 51 63
e 51 66
e 51 68
e 51 70
e 51 74
e 51 76
e 51 78
e 51 82
e 51 83
e 51 85
e 52 53
e 52 57
e 52 76
e 52 89
e 52 92
e 53 58
e 53 59
e 53 60
e 53 69
e 53 71
e 53 72
e 53 74
e 53 75
e 53 82
e 53 85
e 53 89
e 53 90
e 53 92
e 53 93
e 54 58
e 54 65
e 54 66
e 54 75
e 54 77
e 54 80
e 55 58
e 55 61
e 55 67
e 55 72
e 55 74
e 55 95
e 55 96
e 55 99
e 56 97
e 57 58
e 57 60
e 57 65
e 57 66
e 57 69
e 57 70
e 57 73
e 57 74
e 57 75
e 57 78
e 57 89
e 57 94
e 58 67
e 58 68
e 58 82
e 58 83
e 58 91
e 58 92
e 59 61
e 59 64
e 59 66
e 59 67
e 59 70
e 59 71
e 59 72
e 59 80
e 59 85
e 59 87
e 60 65
e 60 71
e 60 77
e 60 81
e 60 83
e 60 85
e 61 64
e 61 65
e 61 75
e 61 77
e 61 85
e 61 94
e 62 81
e 62 82
e 62 83
e 62 85
e 62 88
e 62 94
e 62 95
e 63 67
e 63 99
e 64 76
e 64 81
e 64 85
e 64 88
e 64 91
e 64 96
e 65 67
e 65 72
e 65 75
e 65 84
e 65 86
e 65 96
e 65 100
e 66 68
e 66 71
e 66 73
e 66 83
e 66 84
e 66 90
e 66 92
e 66 96
e 66 98
e 67 72
e 67 78
e 67 86
e 67 92
e 67 95
e 67 98
e 68 70
e 68 75
e 68 76
e 68 77
e 68 78
e 68 80
e 68 82
e 68 84
e 68 89
e 68 93
e 68 95
e 68 96
e 68 97
e 68 100
e 69 93
e 70 73
e 70 74
e 70 88
e 70 91
e 70 100
e 71 73
e 71 78
e 71 86
e 71 99
e 72 84
e 72 94
e 72 95
e 73 87
e 73 99
e 75 80
e 75 82
e 75 83
e 75 87
e 75 94
e 76 79
e 76 99
e 77 82
e 77 91
e 78 80
e 78 89
e 78 97
e 80 82
e 80 87
e 81 92
e 82 85
e 82 88
e 83 88
e 84 92
e 85 91
e 85 99
e 86 87
e 87 93
e 87 95
e 89 90
e 91 97
e 92 96
e 94 98
e 94 100
e 95 98
e 95 100
